data;

param num_top:=3;

#nodes and edges of the physical network
param n := 7;

set E := (1,2) (1,7) (2,3) (2,6) (2,7) (3,4) (3,6) (4,5) (4,6) (5,6) (6,7) ;

#nodes and edges of the virtual networks
set Nl[1] := 3 1 4 5 ;
set Nl[2] := 4 3 2 1 ;
set Nl[3] := 6 2 1 7 4 ;

set El[1] := (1,3) (1,4) (4,5) (3,5) ;
set El[2] := (3,4) (2,3) (1,2) (1,4) (2,4) (1,3) ;
set El[3] := (2,6) (1,2) (1,7) (4,7) (4,6) ;
